10  10
  0  14  1  22  2  47  3  2  4  66  5  70  6  23  7  77  8  82  9  35
  0  24  1  5  2  92  3  32  4  8  5  62  6  10  7  43  8  87  9  70
  0  24  1  20  2  29  3  56  4  7  5  1  6  68  7  12  8  14  9  71
  0  68  1  56  2  63  3  34  4  84  5  9  6  11  7  58  8  93  9  32
  0  70  1  44  2  24  3  24  4  36  5  14  6  82  7  39  8  13  9  8
  0  61  1  79  2  53  3  62  4  80  5  96  6  61  7  86  8  99  9  80
  0  18  1  61  2  87  3  25  4  27  5  42  6  54  7  10  8  99  9  36
  0  73  1  29  2  11  3  60  4  53  5  58  6  2  7  38  8  28  9  43
  0  27  1  72  2  83  3  36  4  44  5  96  6  41  7  39  8  10  9  99
  0  57  1  15  2  37  3  82  4  15  5  74  6  4  7  82  8  17  9  48
